c Sudoku solution
p cnf 729 0
262 0
276 0
285 0
311 0
348 0
356 0
365 0
382 0
397 0
519 0
546 0
555 0
568 0
618 0
626 0
663 0
699 0
767 0
824 0
838 0
843 0
891 0
915 0
875 0
745 0
495 0
486 0
478 0
635 0
125 0
228 0
969 0
866 0
852 0
817 0
889 0
972 0
987 0
592 0
642 0
164 0
461 0
198 0
788 0
958 0
214 0
293 0
181 0
179 0
374 0
147 0
237 0
153 0
773 0
413 0
583 0
684 0
534 0
521 0
432 0
427 0
657 0
577 0
671 0
923 0
722 0
716 0
931 0
739 0
751 0
944 0
794 0
996 0
112 0
136 0
329 0
333 0
241 0
259 0
449 0
454 0
